50
1000
626
618
617
606
588
561
558
530
526
523
518
500
496
486
483
476
472
463
459
452
424
374
346
345
319
318
303
296
278
276
257
238
236
216
211
193
181
171
164
161
159
157
128
115
114
108
108
82
38
35
